!    ibrav = 0, nat = 6, ntyp = 2
CELL_PARAMETERS bohr
   -5.7291390000000000    0.0000000000000000    5.7291390000000000
    0.0000000000000000    5.7291390000000000    5.7291390000000000
  -17.1874169999999999   17.1874169999999999    0.0000000000000000
ATOMIC_SPECIES
 Sr   87.62000   Sr.pbe-spn-kjpaw_psl.1.0.0.UPF
  S   32.06500   S.pbe-nl-kjpaw_psl.1.0.0.UPF
ATOMIC_POSITIONS crystal
 Sr   0.0000000000000000  0.0000000000000000  0.0000000000000000
 Sr   0.9999999999999999  0.0000000000000001  0.3333333333333333
 Sr   0.9999999999999998  0.0000000000000002  0.6666666666666666
  S   0.4999999999999999  0.5000000000000001  0.1691351240777594
  S   0.4925946277667214  0.5000000000000002  0.4999999999999999
  S   0.4999999999999997  0.5000000000000003  0.8333333333333333