!    ibrav = 0, nat = 18, ntyp = 3
CELL_PARAMETERS bohr
  -11.4002450000000000    0.0000000000000000   11.4002450000000000
    0.0000000000000000   11.4002450000000000   11.4002450000000000
  -22.8004899999999999   22.8004899999999999    0.0000000000000000
ATOMIC_SPECIES
 Cs  132.90545   Cs.pbe-mt_bw.UPF
 Sn  118.71000   Sn.pbe-dn-rrkjus_psl.1.0.0.UPF
  I  126.90447   I.pbe-mt_bw.UPF
ATOMIC_POSITIONS crystal
 Cs   0.2500000000000000  0.2500000000000000  0.1231392326712631
 Cs   0.2500000000000001  0.2499999999999999  0.6250000000000001
 Cs   0.7500000000000001  0.7500000000000000  0.3750000000000001
 Cs   0.7500000000000001  0.7500000000000000  0.8750000000000000
 Sn   0.0000000000000000  0.0000000000000000  0.0000000000000000
 Sn   0.0000000000000000  0.0000000000000000  0.5000000000000000
  I   0.2412429999999999  0.7587570000000001  0.3793785000000001
  I   0.2412429999999998  0.7587570000000002  0.8793785000000001
  I   0.7587570000000002  0.2412430000000000  0.3793785000000000
  I   0.7587570000000002  0.2412430000000000  0.8793785000000001
  I   0.2412429999999999  0.7587570000000001  0.1206215000000000
  I   0.2412429999999998  0.7550354653425263  0.6206215000000000
  I   0.7587570000000002  0.2412430000000000  0.1206215000000000
  I   0.7587570000000003  0.2412429999999998  0.6206215000000002
  I   0.7587570000000001  0.7587570000000001  0.1206215000000001
  I   0.7587570000000001  0.7587570000000000  0.6206215000000002
  I   0.2412430000000000  0.2412430000000000  0.3793785000000000
  I   0.2412430000000000  0.2412430000000000  0.8793785000000000